c Reduced graph for GEOM120b generated by Cyril Grelier
p edge 110 1404
e 1 2
e 1 3
e 1 4
e 1 5
e 1 6
e 1 7
e 1 9
e 1 13
e 1 15
e 1 17
e 1 25
e 1 30
e 1 38
e 1 39
e 1 40
e 1 41
e 1 42
e 1 43
e 1 45
e 1 46
e 1 47
e 1 49
e 1 51
e 1 61
e 1 73
e 1 76
e 1 77
e 1 81
e 1 83
e 1 85
e 1 86
e 1 88
e 1 89
e 1 90
e 1 91
e 2 3
e 2 4
e 2 5
e 2 10
e 2 12
e 2 13
e 2 16
e 2 17
e 2 19
e 2 30
e 2 38
e 2 39
e 2 41
e 2 43
e 2 44
e 2 45
e 2 46
e 2 48
e 2 49
e 2 51
e 2 64
e 2 73
e 2 77
e 2 78
e 2 82
e 2 83
e 2 84
e 2 85
e 2 86
e 2 89
e 2 96
e 2 101
e 2 104
e 2 106
e 3 4
e 3 5
e 3 6
e 3 13
e 3 38
e 3 39
e 3 40
e 3 41
e 3 42
e 3 43
e 3 44
e 3 45
e 3 46
e 3 47
e 3 49
e 3 51
e 3 54
e 3 55
e 3 73
e 3 74
e 3 75
e 3 76
e 3 77
e 3 78
e 3 79
e 3 81
e 3 83
e 3 84
e 3 85
e 3 86
e 3 88
e 3 89
e 4 5
e 4 13
e 4 17
e 4 30
e 4 38
e 4 39
e 4 40
e 4 41
e 4 43
e 4 44
e 4 45
e 4 46
e 4 47
e 4 48
e 4 49
e 4 51
e 4 61
e 4 64
e 4 73
e 4 76
e 4 77
e 4 78
e 4 82
e 4 83
e 4 84
e 4 85
e 4 86
e 4 89
e 4 90
e 4 101
e 5 6
e 5 13
e 5 17
e 5 38
e 5 39
e 5 40
e 5 41
e 5 42
e 5 43
e 5 44
e 5 45
e 5 46
e 5 47
e 5 49
e 5 51
e 5 73
e 5 74
e 5 76
e 5 77
e 5 78
e 5 79
e 5 82
e 5 83
e 5 84
e 5 85
e 5 86
e 5 88
e 5 89
e 5 90
e 6 7
e 6 9
e 6 15
e 6 18
e 6 20
e 6 28
e 6 32
e 6 38
e 6 40
e 6 42
e 6 43
e 6 46
e 6 47
e 6 54
e 6 55
e 6 62
e 6 63
e 6 67
e 6 73
e 6 74
e 6 75
e 6 76
e 6 81
e 6 85
e 6 86
e 6 88
e 6 95
e 6 108
e 6 109
e 7 9
e 7 15
e 7 18
e 7 21
e 7 22
e 7 24
e 7 25
e 7 26
e 7 27
e 7 28
e 7 42
e 7 47
e 7 51
e 7 59
e 7 60
e 7 65
e 7 66
e 7 67
e 7 68
e 7 76
e 7 81
e 7 85
e 7 86
e 7 88
e 7 90
e 7 91
e 7 97
e 7 103
e 7 107
e 8 10
e 8 11
e 8 12
e 8 14
e 8 16
e 8 23
e 8 38
e 8 39
e 8 40
e 8 44
e 8 48
e 8 50
e 8 52
e 8 53
e 8 56
e 8 57
e 8 58
e 8 73
e 8 74
e 8 75
e 8 78
e 8 79
e 8 80
e 8 87
e 8 92
e 8 93
e 8 94
e 8 99
e 8 100
e 8 102
e 9 15
e 9 18
e 9 21
e 9 22
e 9 24
e 9 26
e 9 27
e 9 28
e 9 42
e 9 47
e 9 59
e 9 60
e 9 63
e 9 65
e 9 66
e 9 67
e 9 68
e 9 76
e 9 81
e 9 85
e 9 86
e 9 88
e 9 91
e 9 97
e 9 103
e 9 109
e 10 11
e 10 12
e 10 14
e 10 16
e 10 38
e 10 39
e 10 40
e 10 41
e 10 43
e 10 44
e 10 45
e 10 48
e 10 52
e 10 53
e 10 56
e 10 57
e 10 73
e 10 74
e 10 77
e 10 78
e 10 79
e 10 82
e 10 84
e 10 87
e 10 93
e 10 94
e 10 96
e 11 12
e 11 14
e 11 23
e 11 38
e 11 39
e 11 40
e 11 50
e 11 52
e 11 56
e 11 57
e 11 58
e 11 73
e 11 74
e 11 75
e 11 78
e 11 79
e 11 80
e 11 87
e 11 92
e 11 93
e 11 94
e 11 98
e 11 99
e 11 100
e 11 102
e 11 105
e 11 110
e 12 16
e 12 19
e 12 29
e 12 31
e 12 33
e 12 34
e 12 38
e 12 39
e 12 41
e 12 44
e 12 48
e 12 52
e 12 53
e 12 56
e 12 57
e 12 72
e 12 77
e 12 78
e 12 82
e 12 84
e 12 87
e 12 93
e 12 94
e 12 96
e 13 17
e 13 25
e 13 30
e 13 38
e 13 41
e 13 43
e 13 45
e 13 46
e 13 49
e 13 51
e 13 59
e 13 61
e 13 64
e 13 71
e 13 76
e 13 77
e 13 83
e 13 85
e 13 86
e 13 89
e 13 90
e 13 91
e 13 107
e 14 23
e 14 40
e 14 50
e 14 52
e 14 56
e 14 57
e 14 58
e 14 70
e 14 73
e 14 74
e 14 75
e 14 79
e 14 80
e 14 87
e 14 92
e 14 93
e 14 94
e 14 95
e 14 98
e 14 99
e 14 100
e 14 102
e 14 105
e 14 110
e 15 18
e 15 20
e 15 21
e 15 22
e 15 27
e 15 28
e 15 42
e 15 47
e 15 54
e 15 60
e 15 63
e 15 65
e 15 67
e 15 68
e 15 76
e 15 81
e 15 85
e 15 86
e 15 88
e 15 103
e 15 109
e 16 19
e 16 29
e 16 31
e 16 33
e 16 34
e 16 39
e 16 41
e 16 44
e 16 48
e 16 53
e 16 56
e 16 69
e 16 72
e 16 77
e 16 78
e 16 82
e 16 84
e 16 87
e 16 93
e 16 94
e 16 96
e 17 24
e 17 25
e 17 30
e 17 41
e 17 45
e 17 46
e 17 49
e 17 51
e 17 59
e 17 61
e 17 64
e 17 71
e 17 83
e 17 85
e 17 86
e 17 89
e 17 90
e 17 91
e 17 97
e 17 107
e 18 20
e 18 22
e 18 27
e 18 28
e 18 32
e 18 42
e 18 47
e 18 54
e 18 55
e 18 60
e 18 62
e 18 63
e 18 65
e 18 67
e 18 68
e 18 76
e 18 81
e 18 88
e 18 103
e 18 109
e 19 29
e 19 31
e 19 33
e 19 34
e 19 37
e 19 39
e 19 41
e 19 44
e 19 48
e 19 53
e 19 64
e 19 69
e 19 72
e 19 77
e 19 78
e 19 82
e 19 84
e 19 96
e 19 101
e 19 104
e 19 106
e 20 28
e 20 32
e 20 40
e 20 47
e 20 50
e 20 54
e 20 55
e 20 62
e 20 63
e 20 73
e 20 74
e 20 75
e 20 76
e 20 80
e 20 81
e 20 88
e 20 95
e 20 98
e 20 108
e 20 109
e 21 22
e 21 24
e 21 25
e 21 26
e 21 27
e 21 35
e 21 36
e 21 42
e 21 51
e 21 59
e 21 60
e 21 65
e 21 66
e 21 68
e 21 90
e 21 91
e 21 97
e 21 103
e 21 107
e 22 24
e 22 26
e 22 27
e 22 28
e 22 42
e 22 59
e 22 60
e 22 65
e 22 66
e 22 67
e 22 68
e 22 76
e 22 81
e 22 88
e 22 91
e 22 97
e 22 103
e 23 50
e 23 52
e 23 57
e 23 58
e 23 70
e 23 74
e 23 75
e 23 79
e 23 80
e 23 87
e 23 92
e 23 94
e 23 95
e 23 98
e 23 99
e 23 100
e 23 102
e 23 105
e 23 110
e 24 25
e 24 26
e 24 27
e 24 35
e 24 36
e 24 42
e 24 51
e 24 59
e 24 60
e 24 61
e 24 66
e 24 90
e 24 91
e 24 97
e 24 103
e 24 107
e 25 26
e 25 30
e 25 35
e 25 36
e 25 42
e 25 51
e 25 59
e 25 61
e 25 71
e 25 83
e 25 90
e 25 91
e 25 97
e 25 107
e 26 27
e 26 35
e 26 36
e 26 42
e 26 59
e 26 60
e 26 65
e 26 66
e 26 68
e 26 90
e 26 91
e 26 97
e 26 103
e 26 107
e 27 28
e 27 42
e 27 60
e 27 65
e 27 66
e 27 67
e 27 68
e 27 81
e 27 88
e 27 97
e 27 103
e 28 42
e 28 47
e 28 60
e 28 63
e 28 65
e 28 67
e 28 68
e 28 81
e 28 88
e 28 103
e 28 109
e 29 31
e 29 33
e 29 34
e 29 37
e 29 44
e 29 48
e 29 53
e 29 69
e 29 72
e 29 77
e 29 82
e 29 84
e 29 96
e 29 101
e 29 104
e 29 106
e 30 41
e 30 45
e 30 49
e 30 51
e 30 61
e 30 64
e 30 71
e 30 83
e 30 89
e 30 90
e 30 91
e 30 101
e 30 104
e 31 33
e 31 34
e 31 37
e 31 44
e 31 48
e 31 53
e 31 69
e 31 72
e 31 77
e 31 82
e 31 96
e 31 101
e 31 104
e 31 106
e 32 47
e 32 50
e 32 54
e 32 55
e 32 62
e 32 63
e 32 75
e 32 80
e 32 81
e 32 95
e 32 98
e 32 105
e 32 108
e 32 109
e 33 34
e 33 37
e 33 48
e 33 53
e 33 69
e 33 72
e 33 82
e 33 96
e 33 104
e 33 106
e 34 37
e 34 48
e 34 53
e 34 69
e 34 72
e 34 82
e 34 96
e 34 104
e 34 106
e 35 36
e 35 59
e 35 61
e 35 66
e 35 71
e 35 90
e 35 91
e 35 97
e 35 107
e 36 59
e 36 61
e 36 66
e 36 71
e 36 90
e 36 91
e 36 97
e 36 107
e 37 69
e 37 72
e 37 96
e 37 106
e 38 39
e 38 40
e 38 41
e 38 43
e 38 44
e 38 45
e 38 46
e 38 47
e 38 48
e 38 49
e 38 52
e 38 53
e 38 56
e 38 73
e 38 74
e 38 76
e 38 77
e 38 78
e 38 79
e 38 80
e 38 82
e 38 83
e 38 84
e 38 85
e 38 86
e 38 87
e 38 89
e 38 93
e 39 40
e 39 41
e 39 43
e 39 44
e 39 45
e 39 46
e 39 48
e 39 49
e 39 52
e 39 53
e 39 56
e 39 57
e 39 73
e 39 74
e 39 77
e 39 78
e 39 79
e 39 82
e 39 83
e 39 84
e 39 87
e 39 89
e 39 93
e 39 94
e 39 96
e 39 101
e 40 41
e 40 43
e 40 45
e 40 46
e 40 47
e 40 49
e 40 50
e 40 52
e 40 54
e 40 55
e 40 62
e 40 73
e 40 74
e 40 75
e 40 76
e 40 78
e 40 79
e 40 80
e 40 81
e 40 83
e 40 85
e 40 86
e 40 87
e 40 88
e 40 92
e 40 95
e 41 43
e 41 44
e 41 45
e 41 46
e 41 48
e 41 49
e 41 51
e 41 53
e 41 64
e 41 73
e 41 77
e 41 78
e 41 82
e 41 83
e 41 84
e 41 85
e 41 86
e 41 89
e 41 96
e 41 101
e 41 104
e 41 106
e 42 43
e 42 46
e 42 47
e 42 51
e 42 59
e 42 60
e 42 63
e 42 65
e 42 66
e 42 67
e 42 68
e 42 76
e 42 81
e 42 85
e 42 86
e 42 88
e 42 90
e 42 91
e 42 97
e 42 103
e 43 44
e 43 45
e 43 46
e 43 47
e 43 49
e 43 54
e 43 55
e 43 73
e 43 74
e 43 75
e 43 76
e 43 77
e 43 78
e 43 79
e 43 81
e 43 83
e 43 84
e 43 85
e 43 86
e 43 87
e 43 88
e 43 89
e 44 45
e 44 46
e 44 48
e 44 49
e 44 53
e 44 56
e 44 73
e 44 77
e 44 78
e 44 82
e 44 83
e 44 84
e 44 87
e 44 89
e 44 93
e 44 96
e 44 101
e 44 104
e 44 106
e 45 46
e 45 47
e 45 48
e 45 49
e 45 51
e 45 61
e 45 64
e 45 73
e 45 76
e 45 77
e 45 78
e 45 82
e 45 83
e 45 84
e 45 85
e 45 86
e 45 89
e 45 90
e 45 101
e 46 47
e 46 49
e 46 51
e 46 73
e 46 74
e 46 76
e 46 77
e 46 78
e 46 79
e 46 82
e 46 83
e 46 84
e 46 85
e 46 86
e 46 88
e 46 89
e 46 90
e 47 49
e 47 54
e 47 55
e 47 62
e 47 63
e 47 73
e 47 74
e 47 75
e 47 76
e 47 81
e 47 83
e 47 85
e 47 86
e 47 88
e 48 53
e 48 56
e 48 69
e 48 72
e 48 77
e 48 78
e 48 82
e 48 84
e 48 87
e 48 93
e 48 94
e 48 96
e 48 101
e 48 104
e 48 106
e 49 51
e 49 61
e 49 64
e 49 73
e 49 76
e 49 77
e 49 82
e 49 83
e 49 84
e 49 85
e 49 86
e 49 89
e 49 90
e 49 91
e 50 52
e 50 54
e 50 55
e 50 57
e 50 58
e 50 62
e 50 70
e 50 73
e 50 74
e 50 75
e 50 79
e 50 80
e 50 87
e 50 92
e 50 93
e 50 94
e 50 95
e 50 98
e 50 99
e 50 100
e 50 102
e 50 105
e 50 108
e 50 110
e 51 59
e 51 61
e 51 64
e 51 71
e 51 76
e 51 83
e 51 85
e 51 86
e 51 89
e 51 90
e 51 91
e 51 97
e 51 107
e 52 53
e 52 56
e 52 57
e 52 58
e 52 73
e 52 74
e 52 75
e 52 78
e 52 79
e 52 80
e 52 87
e 52 92
e 52 93
e 52 94
e 52 99
e 52 100
e 52 102
e 52 110
e 53 56
e 53 57
e 53 72
e 53 77
e 53 78
e 53 82
e 53 84
e 53 87
e 53 93
e 53 94
e 53 96
e 54 55
e 54 62
e 54 63
e 54 73
e 54 74
e 54 75
e 54 76
e 54 79
e 54 80
e 54 81
e 54 88
e 54 92
e 54 95
e 54 98
e 54 108
e 54 109
e 55 62
e 55 63
e 55 73
e 55 74
e 55 75
e 55 76
e 55 79
e 55 80
e 55 81
e 55 88
e 55 92
e 55 95
e 55 98
e 55 105
e 55 108
e 55 109
e 56 57
e 56 58
e 56 74
e 56 78
e 56 79
e 56 80
e 56 82
e 56 84
e 56 87
e 56 92
e 56 93
e 56 94
e 56 100
e 57 58
e 57 73
e 57 74
e 57 78
e 57 79
e 57 80
e 57 87
e 57 92
e 57 93
e 57 94
e 57 99
e 57 100
e 57 102
e 58 70
e 58 74
e 58 75
e 58 79
e 58 80
e 58 87
e 58 92
e 58 93
e 58 94
e 58 98
e 58 99
e 58 100
e 58 102
e 58 105
e 58 110
e 59 60
e 59 61
e 59 66
e 59 71
e 59 90
e 59 91
e 59 97
e 59 103
e 59 107
e 60 65
e 60 66
e 60 67
e 60 68
e 60 76
e 60 81
e 60 88
e 60 91
e 60 97
e 60 103
e 61 64
e 61 71
e 61 83
e 61 89
e 61 90
e 61 91
e 61 97
e 61 107
e 62 63
e 62 73
e 62 74
e 62 75
e 62 80
e 62 81
e 62 88
e 62 95
e 62 98
e 62 105
e 62 108
e 62 109
e 63 67
e 63 75
e 63 76
e 63 81
e 63 88
e 63 95
e 63 108
e 63 109
e 64 71
e 64 77
e 64 82
e 64 83
e 64 89
e 64 101
e 64 104
e 64 106
e 65 66
e 65 67
e 65 68
e 65 81
e 65 88
e 65 97
e 65 103
e 66 68
e 66 97
e 66 103
e 66 107
e 67 68
e 67 81
e 67 88
e 67 103
e 67 109
e 68 97
e 68 103
e 69 72
e 69 77
e 69 82
e 69 96
e 69 101
e 69 104
e 69 106
e 70 75
e 70 80
e 70 92
e 70 95
e 70 98
e 70 99
e 70 100
e 70 102
e 70 105
e 70 108
e 70 110
e 71 89
e 71 90
e 71 91
e 71 107
e 72 96
e 73 74
e 73 75
e 73 76
e 73 78
e 73 79
e 73 80
e 73 81
e 73 83
e 73 84
e 73 85
e 73 86
e 73 87
e 73 92
e 73 93
e 73 94
e 73 95
e 74 75
e 74 76
e 74 78
e 74 79
e 74 80
e 74 85
e 74 86
e 74 87
e 74 92
e 74 93
e 74 94
e 74 95
e 74 98
e 74 99
e 74 108
e 75 79
e 75 80
e 75 81
e 75 87
e 75 92
e 75 95
e 75 98
e 75 99
e 75 100
e 75 102
e 75 105
e 75 108
e 75 110
e 76 81
e 76 83
e 76 85
e 76 86
e 76 88
e 76 91
e 77 78
e 77 82
e 77 83
e 77 84
e 77 89
e 77 96
e 77 101
e 77 104
e 77 106
e 78 79
e 78 82
e 78 84
e 78 87
e 78 93
e 78 94
e 78 96
e 79 80
e 79 87
e 79 92
e 79 93
e 79 94
e 79 95
e 79 98
e 79 99
e 79 100
e 79 102
e 80 87
e 80 92
e 80 93
e 80 94
e 80 95
e 80 98
e 80 99
e 80 100
e 80 102
e 80 105
e 80 108
e 80 110
e 81 85
e 81 86
e 81 88
e 81 95
e 81 108
e 81 109
e 82 83
e 82 84
e 82 89
e 82 96
e 82 101
e 82 104
e 82 106
e 83 84
e 83 85
e 83 86
e 83 89
e 83 90
e 83 91
e 84 87
e 84 89
e 84 93
e 84 96
e 84 101
e 84 104
e 84 106
e 85 86
e 85 88
e 85 89
e 85 90
e 85 91
e 86 88
e 86 89
e 86 90
e 86 91
e 87 92
e 87 93
e 87 94
e 87 99
e 87 100
e 88 103
e 88 109
e 89 90
e 89 91
e 89 101
e 89 104
e 90 91
e 90 97
e 90 107
e 91 97
e 91 107
e 92 93
e 92 94
e 92 95
e 92 98
e 92 99
e 92 100
e 92 102
e 92 105
e 92 110
e 93 94
e 93 99
e 93 100
e 94 99
e 94 100
e 94 102
e 95 98
e 95 99
e 95 102
e 95 105
e 95 108
e 95 109
e 95 110
e 96 101
e 96 104
e 96 106
e 97 103
e 97 107
e 98 99
e 98 100
e 98 102
e 98 105
e 98 108
e 98 110
e 99 100
e 99 102
e 99 105
e 99 110
e 100 102
e 100 105
e 100 110
e 101 104
e 101 106
e 102 105
e 102 110
e 104 106
e 105 108
e 105 110
e 108 109
